c description: Random 3-CNF over 19 variables and 81 clauses
c generator: CNFgen (0.9.2)
c copyright: (C) 2012-2022 Massimo Lauria <massimo.lauria@uniroma1.it>
c url: https://massimolauria.net/cnfgen
c command line: cnfgen --output CNF_4.28/19_bit_81_927.cnf randkcnf 3 19 81
c
p cnf 19 81
4 9 -12 0
-5 12 -19 0
-5 -11 16 0
8 -17 -19 0
3 -4 -17 0
-7 -12 14 0
-13 -18 -19 0
-4 13 17 0
-12 15 -16 0
1 14 17 0
1 3 -11 0
14 15 18 0
-10 14 19 0
-9 -10 -16 0
7 -11 18 0
7 -16 -18 0
-3 -9 -18 0
-3 -16 -18 0
7 11 18 0
14 15 -18 0
10 11 12 0
-1 -5 -17 0
5 -9 -11 0
-4 9 -12 0
-1 4 -17 0
-1 -2 18 0
2 -5 7 0
-5 -7 -12 0
5 -8 -9 0
2 7 19 0
5 -11 -14 0
-1 8 14 0
3 13 15 0
5 7 13 0
-6 9 11 0
-9 14 15 0
1 16 -19 0
2 -9 -18 0
7 9 -13 0
11 15 -19 0
-3 10 -14 0
1 -4 -16 0
4 11 19 0
6 -8 16 0
-11 -12 -19 0
-7 -9 17 0
-2 -8 -12 0
-2 8 -10 0
11 -15 -18 0
-2 -3 -18 0
5 -11 18 0
-3 -15 -16 0
9 11 -14 0
-5 -11 12 0
-1 6 -10 0
-3 -14 -18 0
5 16 -17 0
2 8 14 0
3 -5 18 0
-12 14 19 0
-9 -16 -19 0
-3 4 12 0
1 -9 10 0
2 -4 19 0
-3 5 -11 0
-6 -14 18 0
4 -15 -16 0
4 -6 10 0
-7 8 -14 0
6 7 13 0
-12 15 18 0
-12 -15 -17 0
6 9 19 0
-3 6 11 0
-1 7 -18 0
1 -8 -9 0
-3 -5 17 0
-4 5 -9 0
-3 -5 -19 0
8 -10 16 0
1 8 -12 0
